NAME: R10-110518-164854.tsp
TYPE: TSP
COMMENT: Random data
DIMENSION: 10
EDGE_WEIGHT_TYPE: EXPLICIT
EDGE_WEIGHT_FORMAT: FULL_MATRIX
DISPLAY_DATA_TYPE: NO_DISPLAY
EDGE_WEIGHT_SECTION
 0 75 70 59 19 37 93 73  8 65 
58  0  4 37 72 98 80 49 82 28 
24 60  0 29 21 77 94 77 60 73 
34 89 95  0 82 35 22 39 53 62 
64  3 40 62  0 54 70 72 95 40 
76 20 17 76 56  0 24 57 81 69 
15 53 93 64 41 76  0 19 38 18 
70 76 68 15 33 44 18  0 85 79 
87 62  6 58 48 81 54  0  0 40 
56 58 32 71 24 54 52 23  0  0 
EOF